5 5
1 79 2 67 4 3 0 23 3 9
1 11 4 47 2 49 0 44 3 13
3 8 1 63 2 22 4 38 0 27
3 26 4 23 0 95 1 93 2 65
1 74 3 47 0 61 4 46 2 4
-1
0 3 5
0 1 2 3 5
0 1 3 4 5
0 1 3 5
0 2 5
-2
190 184
11 73 128 257
11 119 136 231
40 158 387
187 355

385 7
17 22 8 3 14
5 20 11 0 18
7 1 12 24 19
10 15 21 4 9
6 16 23 2 13
